\* Problem: steiner *\

Minimize
 obj: + 11.4017543792725 x1i7 + 8.60232543945312 x1i8
 + 5.83095169067383 x1i9 + 11.4017543792725 x1i10
 + 6.32455539703369 x2i7 + 4 x2i8 + 2.82842707633972 x2i9
 + 10.7703294754028 x2i10 + 11.1803398132324 x3i7 + 8.5440034866333 x3i8
 + 6.08276271820068 x3i9 + 14.0356683731079 x3i10
 + 11.4017543792725 x4i7 + 8.60232543945312 x4i8 + 5.83095169067383 x4i9
 + 13.0384044647217 x4i10 + 4.4721360206604 x5i7 + 2 x5i8 + 2 x5i9
 + 8.9442720413208 x5i10 + 10.7703294754028 x6i7 + 8.24621105194092 x6i8
 + 6 x6i9 + 8.9442720413208 x6i10 + 2.82842707633972 x7i8
 + 5.65685415267944 x7i9 + 7.21110248565674 x7i10
 + 2.82842707633972 x8i9 + 7.21110248565674 x8i10
 + 8.24621105194092 x9i10

Subject To
 p1: 0 x1i7 = 1
 p2: 0 x1i7 = 1
 p3: 0 x1i7 = 1
 p4: 0 x1i7 = 1
 p5: 0 x1i7 = 1
 p6: 0 x1i7 = 1
 q7: 0 x1i7 = 3
 q8: 0 x1i7 = 3
 q9: 0 x1i7 = 3
 q10: 0 x1i7 = 3

Bounds
 0 <= x1i7 <= 1
 0 <= x1i8 <= 1
 0 <= x1i9 <= 1
 0 <= x1i10 <= 1
 0 <= x2i7 <= 1
 0 <= x2i8 <= 1
 0 <= x2i9 <= 1
 0 <= x2i10 <= 1
 0 <= x3i7 <= 1
 0 <= x3i8 <= 1
 0 <= x3i9 <= 1
 0 <= x3i10 <= 1
 0 <= x4i7 <= 1
 0 <= x4i8 <= 1
 0 <= x4i9 <= 1
 0 <= x4i10 <= 1
 0 <= x5i7 <= 1
 0 <= x5i8 <= 1
 0 <= x5i9 <= 1
 0 <= x5i10 <= 1
 0 <= x6i7 <= 1
 0 <= x6i8 <= 1
 0 <= x6i9 <= 1
 0 <= x6i10 <= 1
 0 <= x7i8 <= 1
 0 <= x7i9 <= 1
 0 <= x7i10 <= 1
 0 <= x8i9 <= 1
 0 <= x8i10 <= 1
 0 <= x9i10 <= 1

Generals
 x1i7
 x1i8
 x1i9
 x1i10
 x2i7
 x2i8
 x2i9
 x2i10
 x3i7
 x3i8
 x3i9
 x3i10
 x4i7
 x4i8
 x4i9
 x4i10
 x5i7
 x5i8
 x5i9
 x5i10
 x6i7
 x6i8
 x6i9
 x6i10
 x7i8
 x7i9
 x7i10
 x8i9
 x8i10
 x9i10

End
